c File: flat50_3_0.col
c
c SOURCE: Joseph Culberson (joe@cs.ualberta.ca)
c DESCRIPTION: Quasi-random coloring problem
c              generated with flatness = 0
c                             probability = 0.139
c                             known coloring = 3
c                             random seed = 1021
c              Creation Date:  Tue Jun  9 11:59:17 1998
c Maximum degree = 8 Minimum degree = 1
c p edge 50 115
c cnf created by edge2cnf
p cnf 150 545
-1 -2 0
-1 -3 0
-2 -3 0
1 2 3 0
-4 -5 0
-4 -6 0
-5 -6 0
4 5 6 0
-7 -8 0
-7 -9 0
-8 -9 0
7 8 9 0
-10 -11 0
-10 -12 0
-11 -12 0
10 11 12 0
-13 -14 0
-13 -15 0
-14 -15 0
13 14 15 0
-16 -17 0
-16 -18 0
-17 -18 0
16 17 18 0
-19 -20 0
-19 -21 0
-20 -21 0
19 20 21 0
-22 -23 0
-22 -24 0
-23 -24 0
22 23 24 0
-25 -26 0
-25 -27 0
-26 -27 0
25 26 27 0
-28 -29 0
-28 -30 0
-29 -30 0
28 29 30 0
-31 -32 0
-31 -33 0
-32 -33 0
31 32 33 0
-34 -35 0
-34 -36 0
-35 -36 0
34 35 36 0
-37 -38 0
-37 -39 0
-38 -39 0
37 38 39 0
-40 -41 0
-40 -42 0
-41 -42 0
40 41 42 0
-43 -44 0
-43 -45 0
-44 -45 0
43 44 45 0
-46 -47 0
-46 -48 0
-47 -48 0
46 47 48 0
-49 -50 0
-49 -51 0
-50 -51 0
49 50 51 0
-52 -53 0
-52 -54 0
-53 -54 0
52 53 54 0
-55 -56 0
-55 -57 0
-56 -57 0
55 56 57 0
-58 -59 0
-58 -60 0
-59 -60 0
58 59 60 0
-61 -62 0
-61 -63 0
-62 -63 0
61 62 63 0
-64 -65 0
-64 -66 0
-65 -66 0
64 65 66 0
-67 -68 0
-67 -69 0
-68 -69 0
67 68 69 0
-70 -71 0
-70 -72 0
-71 -72 0
70 71 72 0
-73 -74 0
-73 -75 0
-74 -75 0
73 74 75 0
-76 -77 0
-76 -78 0
-77 -78 0
76 77 78 0
-79 -80 0
-79 -81 0
-80 -81 0
79 80 81 0
-82 -83 0
-82 -84 0
-83 -84 0
82 83 84 0
-85 -86 0
-85 -87 0
-86 -87 0
85 86 87 0
-88 -89 0
-88 -90 0
-89 -90 0
88 89 90 0
-91 -92 0
-91 -93 0
-92 -93 0
91 92 93 0
-94 -95 0
-94 -96 0
-95 -96 0
94 95 96 0
-97 -98 0
-97 -99 0
-98 -99 0
97 98 99 0
-100 -101 0
-100 -102 0
-101 -102 0
100 101 102 0
-103 -104 0
-103 -105 0
-104 -105 0
103 104 105 0
-106 -107 0
-106 -108 0
-107 -108 0
106 107 108 0
-109 -110 0
-109 -111 0
-110 -111 0
109 110 111 0
-112 -113 0
-112 -114 0
-113 -114 0
112 113 114 0
-115 -116 0
-115 -117 0
-116 -117 0
115 116 117 0
-118 -119 0
-118 -120 0
-119 -120 0
118 119 120 0
-121 -122 0
-121 -123 0
-122 -123 0
121 122 123 0
-124 -125 0
-124 -126 0
-125 -126 0
124 125 126 0
-127 -128 0
-127 -129 0
-128 -129 0
127 128 129 0
-130 -131 0
-130 -132 0
-131 -132 0
130 131 132 0
-133 -134 0
-133 -135 0
-134 -135 0
133 134 135 0
-136 -137 0
-136 -138 0
-137 -138 0
136 137 138 0
-139 -140 0
-139 -141 0
-140 -141 0
139 140 141 0
-142 -143 0
-142 -144 0
-143 -144 0
142 143 144 0
-145 -146 0
-145 -147 0
-146 -147 0
145 146 147 0
-148 -149 0
-148 -150 0
-149 -150 0
148 149 150 0
-112 -1 0
-113 -2 0
-114 -3 0
-136 -1 0
-137 -2 0
-138 -3 0
-61 -4 0
-62 -5 0
-63 -6 0
-130 -4 0
-131 -5 0
-132 -6 0
-58 -7 0
-59 -8 0
-60 -9 0
-64 -7 0
-65 -8 0
-66 -9 0
-70 -7 0
-71 -8 0
-72 -9 0
-88 -7 0
-89 -8 0
-90 -9 0
-112 -7 0
-113 -8 0
-114 -9 0
-136 -7 0
-137 -8 0
-138 -9 0
-139 -7 0
-140 -8 0
-141 -9 0
-85 -10 0
-86 -11 0
-87 -12 0
-94 -10 0
-95 -11 0
-96 -12 0
-112 -10 0
-113 -11 0
-114 -12 0
-133 -10 0
-134 -11 0
-135 -12 0
-64 -13 0
-65 -14 0
-66 -15 0
-73 -13 0
-74 -14 0
-75 -15 0
-91 -13 0
-92 -14 0
-93 -15 0
-103 -13 0
-104 -14 0
-105 -15 0
-106 -13 0
-107 -14 0
-108 -15 0
-148 -13 0
-149 -14 0
-150 -15 0
-52 -16 0
-53 -17 0
-54 -18 0
-106 -16 0
-107 -17 0
-108 -18 0
-115 -16 0
-116 -17 0
-117 -18 0
-121 -16 0
-122 -17 0
-123 -18 0
-127 -16 0
-128 -17 0
-129 -18 0
-55 -19 0
-56 -20 0
-57 -21 0
-88 -19 0
-89 -20 0
-90 -21 0
-103 -19 0
-104 -20 0
-105 -21 0
-52 -22 0
-53 -23 0
-54 -24 0
-55 -22 0
-56 -23 0
-57 -24 0
-67 -22 0
-68 -23 0
-69 -24 0
-67 -25 0
-68 -26 0
-69 -27 0
-82 -25 0
-83 -26 0
-84 -27 0
-85 -25 0
-86 -26 0
-87 -27 0
-121 -25 0
-122 -26 0
-123 -27 0
-58 -28 0
-59 -29 0
-60 -30 0
-88 -28 0
-89 -29 0
-90 -30 0
-97 -28 0
-98 -29 0
-99 -30 0
-100 -28 0
-101 -29 0
-102 -30 0
-67 -31 0
-68 -32 0
-69 -33 0
-73 -31 0
-74 -32 0
-75 -33 0
-94 -31 0
-95 -32 0
-96 -33 0
-127 -31 0
-128 -32 0
-129 -33 0
-136 -31 0
-137 -32 0
-138 -33 0
-139 -31 0
-140 -32 0
-141 -33 0
-61 -34 0
-62 -35 0
-63 -36 0
-64 -34 0
-65 -35 0
-66 -36 0
-73 -34 0
-74 -35 0
-75 -36 0
-97 -34 0
-98 -35 0
-99 -36 0
-112 -34 0
-113 -35 0
-114 -36 0
-124 -34 0
-125 -35 0
-126 -36 0
-139 -34 0
-140 -35 0
-141 -36 0
-76 -37 0
-77 -38 0
-78 -39 0
-100 -37 0
-101 -38 0
-102 -39 0
-106 -37 0
-107 -38 0
-108 -39 0
-118 -37 0
-119 -38 0
-120 -39 0
-121 -37 0
-122 -38 0
-123 -39 0
-145 -37 0
-146 -38 0
-147 -39 0
-64 -40 0
-65 -41 0
-66 -42 0
-76 -40 0
-77 -41 0
-78 -42 0
-79 -40 0
-80 -41 0
-81 -42 0
-88 -40 0
-89 -41 0
-90 -42 0
-124 -40 0
-125 -41 0
-126 -42 0
-136 -40 0
-137 -41 0
-138 -42 0
-142 -40 0
-143 -41 0
-144 -42 0
-94 -43 0
-95 -44 0
-96 -45 0
-121 -43 0
-122 -44 0
-123 -45 0
-133 -43 0
-134 -44 0
-135 -45 0
-67 -46 0
-68 -47 0
-69 -48 0
-109 -46 0
-110 -47 0
-111 -48 0
-124 -46 0
-125 -47 0
-126 -48 0
-127 -46 0
-128 -47 0
-129 -48 0
-70 -49 0
-71 -50 0
-72 -51 0
-97 -49 0
-98 -50 0
-99 -51 0
-118 -49 0
-119 -50 0
-120 -51 0
-124 -49 0
-125 -50 0
-126 -51 0
-130 -49 0
-131 -50 0
-132 -51 0
-103 -55 0
-104 -56 0
-105 -57 0
-133 -55 0
-134 -56 0
-135 -57 0
-103 -58 0
-104 -59 0
-105 -60 0
-106 -58 0
-107 -59 0
-108 -60 0
-133 -58 0
-134 -59 0
-135 -60 0
-124 -64 0
-125 -65 0
-126 -66 0
-148 -64 0
-149 -65 0
-150 -66 0
-109 -67 0
-110 -68 0
-111 -69 0
-118 -67 0
-119 -68 0
-120 -69 0
-121 -67 0
-122 -68 0
-123 -69 0
-130 -67 0
-131 -68 0
-132 -69 0
-127 -70 0
-128 -71 0
-129 -72 0
-145 -70 0
-146 -71 0
-147 -72 0
-106 -73 0
-107 -74 0
-108 -75 0
-124 -73 0
-125 -74 0
-126 -75 0
-115 -76 0
-116 -77 0
-117 -78 0
-139 -76 0
-140 -77 0
-141 -78 0
-109 -79 0
-110 -80 0
-111 -81 0
-130 -79 0
-131 -80 0
-132 -81 0
-139 -79 0
-140 -80 0
-141 -81 0
-148 -79 0
-149 -80 0
-150 -81 0
-133 -85 0
-134 -86 0
-135 -87 0
-145 -85 0
-146 -86 0
-147 -87 0
-112 -88 0
-113 -89 0
-114 -90 0
-130 -88 0
-131 -89 0
-132 -90 0
-148 -88 0
-149 -89 0
-150 -90 0
-112 -91 0
-113 -92 0
-114 -93 0
-121 -91 0
-122 -92 0
-123 -93 0
-112 -94 0
-113 -95 0
-114 -96 0
-118 -94 0
-119 -95 0
-120 -96 0
-130 -94 0
-131 -95 0
-132 -96 0
-115 -97 0
-116 -98 0
-117 -99 0
-118 -97 0
-119 -98 0
-120 -99 0
-133 -97 0
-134 -98 0
-135 -99 0
-148 -97 0
-149 -98 0
-150 -99 0
-118 -100 0
-119 -101 0
-120 -102 0
-145 -100 0
-146 -101 0
-147 -102 0
